
(set-logic ALL) 

(declare-datatype MyList ((Nil) (Cons (head Real) (tail MyList)) )) 
(declare-fun l0 () MyList) 
(declare-fun l1 () MyList) 
(declare-fun l2 () MyList) 
(declare-fun l3 () MyList) 
(declare-fun i0 () Real) 
(declare-fun i1 () Real) 
(assert (or (= l2 l1) (is-Cons l2)) )
(assert (not (is-Nil l0)) )
(assert (is-Nil l0) )
(assert (= l2 Nil) )
(assert (= l1 l1) )
(assert (and (= l0 l3) (= l2 l3)) )
(assert (= l1 Nil) )
(assert (and (is-Cons l0) (= l3 Nil)) )
(check-sat)
